
n_res = 6;
rcap = [117, 122, 122, 89, 835, 808];
rtype = [1, 1, 1, 1, 2, 2];
n_tasks = 50;
modes =  [{1, 2, 3, 4, 5, 6}, {7, 8, 9, 10, 11, 12}, {13, 14, 15, 16, 17, 18}, {19, 20, 21, 22, 23, 24}, {25, 26, 27, 28, 29, 30}, {31, 32, 33, 34, 35, 36}, {37, 38, 39, 40, 41, 42}, {43, 44, 45, 46, 47, 48}, {49, 50, 51, 52, 53, 54}, {55, 56, 57, 58, 59, 60}, {61, 62, 63, 64, 65, 66}, {67, 68, 69, 70, 71, 72}, {73, 74, 75, 76, 77, 78}, {79, 80, 81, 82, 83, 84}, {85, 86, 87, 88, 89, 90}, {91, 92, 93, 94, 95, 96}, {97, 98, 99, 100, 101, 102}, {103, 104, 105, 106, 107, 108}, {109, 110, 111, 112, 113, 114}, {115, 116, 117, 118, 119, 120}, {121, 122, 123, 124, 125, 126}, {127, 128, 129, 130, 131, 132}, {133, 134, 135, 136, 137, 138}, {139, 140, 141, 142, 143, 144}, {145, 146, 147, 148, 149, 150}, {151, 152, 153, 154, 155, 156}, {157, 158, 159, 160, 161, 162}, {163, 164, 165, 166, 167, 168}, {169, 170, 171, 172, 173, 174}, {175, 176, 177, 178, 179, 180}, {181, 182, 183, 184, 185, 186}, {187, 188, 189, 190, 191, 192}, {193, 194, 195, 196, 197, 198}, {199, 200, 201, 202, 203, 204}, {205, 206, 207, 208, 209, 210}, {211, 212, 213, 214, 215, 216}, {217, 218, 219, 220, 221, 222}, {223, 224, 225, 226, 227, 228}, {229, 230, 231, 232, 233, 234}, {235, 236, 237, 238, 239, 240}, {241, 242, 243, 244, 245, 246}, {247, 248, 249, 250, 251, 252}, {253, 254, 255, 256, 257, 258}, {259, 260, 261, 262, 263, 264}, {265, 266, 267, 268, 269, 270}, {271, 272, 273, 274, 275, 276}, {277, 278, 279, 280, 281, 282}, {283, 284, 285, 286, 287, 288}, {289, 290, 291, 292, 293, 294}, {295, 296, 297, 298, 299, 300}];
succ =  [{13, 10, 8, 4}, {18, 16, 12, 9}, {19, 13, 12, 10}, {19, 16, 15, 14, 12}, {19, 18, 14, 12}, {18, 16, 9}, {19, 16, 12}, {26, 18, 14}, {22, 19, 14}, {25, 18, 17}, {26, 18, 17}, {26, 25, 17}, {22, 14}, {27, 25, 24, 23, 21, 20}, {27, 25, 24, 23, 21, 20}, {29, 27, 26, 25, 24, 21}, {24, 23, 22, 21, 20}, {33, 27, 24, 22}, {33, 30, 28, 25}, {39, 30, 29, 28}, {33, 31, 30, 28}, {39, 29, 28}, {29, 28}, {32, 31, 30}, {39, 32, 31}, {39, 38, 35, 33, 32}, {43, 39, 31}, {38, 36, 34, 32}, {43, 31}, {43, 40, 38, 36, 35}, {38, 36, 34}, {44, 43, 42, 41, 40, 37}, {44, 43, 42, 36}, {40, 37, 35}, {49, 48, 44, 42, 41}, {49, 41, 37}, {50, 48, 47, 45}, {48, 45, 41}, {49, 48, 41}, {47, 45}, {47, 46}, {50, 47}, {49, 46}, {45}, {46}, {}, {}, {}, {}, {}];
n_opt = 300;
dur = [9, 11, 15, 16, 23, 30, 3, 14, 15, 19, 22, 28, 1, 7, 8, 10, 14, 30, 7, 14, 22, 25, 26, 27, 5, 8, 11, 25, 27, 30, 3, 4, 5, 10, 15, 26, 5, 8, 12, 18, 24, 27, 4, 14, 15, 16, 20, 25, 2, 6, 8, 19, 26, 30, 3, 5, 14, 16, 26, 27, 5, 10, 12, 13, 25, 26, 19, 20, 21, 22, 25, 30, 1, 6, 12, 14, 16, 21, 11, 15, 21, 24, 28, 29, 6, 12, 16, 27, 28, 30, 1, 7, 14, 16, 22, 27, 1, 12, 13, 19, 24, 27, 12, 13, 20, 23, 29, 30, 12, 15, 17, 20, 21, 22, 3, 11, 20, 23, 24, 27, 2, 3, 4, 8, 11, 14, 4, 11, 17, 23, 24, 29, 2, 6, 8, 10, 17, 18, 8, 9, 15, 21, 25, 29, 1, 2, 4, 10, 24, 27, 3, 6, 25, 26, 27, 29, 3, 4, 5, 16, 25, 28, 4, 8, 9, 15, 19, 24, 11, 12, 17, 21, 22, 24, 12, 19, 20, 23, 26, 30, 2, 4, 5, 6, 10, 24, 2, 10, 11, 15, 23, 24, 9, 10, 14, 28, 29, 30, 7, 12, 16, 18, 22, 26, 8, 12, 13, 14, 20, 29, 5, 9, 11, 12, 20, 30, 1, 2, 7, 8, 9, 16, 5, 10, 21, 22, 23, 27, 7, 10, 13, 20, 22, 28, 6, 10, 14, 22, 25, 26, 3, 8, 14, 17, 18, 23, 4, 5, 10, 12, 20, 30, 8, 17, 18, 23, 26, 27, 5, 8, 10, 20, 22, 27, 4, 6, 7, 13, 21, 29, 5, 13, 19, 27, 28, 30, 5, 10, 11, 22, 26, 27, 8, 10, 19, 27, 29, 30, 2, 3, 7, 17, 18, 22, 8, 13, 14, 20, 24, 25];
rreq = [|10, 9, 9, 9, 8, 7, 27, 24, 21, 19, 18, 16, 26, 21, 21, 18, 13, 10, 20, 15, 13, 10, 8, 6, 21, 19, 17, 17, 15, 14, 28, 23, 20, 19, 17, 14, 15, 12, 12, 10, 6, 5, 24, 20, 18, 14, 10, 4, 12, 11, 11, 11, 10, 9, 25, 24, 23, 23, 21, 21, 19, 19, 17, 17, 14, 14, 13, 13, 13, 13, 13, 13, 25, 22, 19, 15, 10, 5, 27, 26, 23, 20, 19, 18, 30, 29, 28, 27, 27, 26, 26, 19, 16, 11, 8, 6, 27, 25, 24, 22, 20, 19, 14, 13, 13, 12, 12, 11, 15, 13, 13, 13, 12, 11, 23, 17, 14, 13, 9, 6, 16, 16, 16, 15, 15, 14, 11, 9, 8, 7, 5, 5, 18, 15, 15, 12, 7, 6, 10, 10, 10, 10, 10, 10, 23, 22, 22, 21, 21, 21, 16, 14, 13, 11, 11, 10, 5, 5, 5, 4, 3, 3, 23, 21, 17, 17, 14, 10, 14, 13, 10, 9, 6, 5, 25, 24, 22, 20, 20, 19, 12, 12, 10, 8, 8, 5, 17, 16, 16, 14, 13, 13, 26, 23, 22, 20, 19, 17, 14, 13, 13, 13, 11, 11, 29, 29, 29, 29, 29, 29, 7, 6, 6, 6, 6, 6, 15, 14, 14, 14, 13, 13, 22, 19, 17, 12, 8, 8, 29, 29, 28, 28, 27, 27, 11, 10, 10, 10, 10, 10, 16, 15, 11, 11, 9, 5, 23, 23, 23, 23, 23, 23, 11, 10, 10, 10, 10, 10, 28, 21, 19, 18, 12, 9, 20, 19, 17, 17, 16, 15, 11, 11, 11, 10, 10, 10, 24, 20, 13, 9, 7, 2, 7, 6, 5, 4, 3, 2, 15, 15, 15, 15, 14, 14, 22, 17, 17, 13, 10, 6
 |26, 26, 23, 21, 20, 18, 28, 25, 24, 20, 17, 14, 22, 20, 19, 19, 18, 17, 26, 21, 16, 15, 12, 8, 26, 25, 22, 21, 17, 15, 12, 10, 10, 8, 7, 7, 15, 14, 14, 14, 14, 14, 14, 11, 10, 6, 3, 3, 28, 28, 28, 27, 27, 26, 25, 20, 20, 15, 13, 7, 25, 21, 19, 12, 12, 9, 9, 9, 9, 9, 9, 9, 23, 20, 16, 16, 10, 8, 25, 24, 21, 15, 12, 11, 15, 14, 14, 14, 13, 13, 27, 25, 24, 23, 23, 22, 25, 24, 24, 24, 23, 22, 15, 14, 14, 12, 12, 11, 12, 9, 8, 5, 5, 2, 13, 12, 12, 12, 12, 12, 26, 26, 26, 26, 26, 26, 20, 20, 20, 20, 20, 20, 5, 5, 4, 4, 3, 3, 23, 21, 20, 17, 15, 14, 5, 4, 4, 3, 3, 3, 25, 25, 23, 23, 22, 21, 20, 19, 16, 12, 8, 8, 9, 9, 8, 8, 6, 6, 24, 23, 20, 16, 13, 11, 23, 21, 20, 18, 18, 17, 9, 8, 7, 6, 4, 3, 13, 13, 11, 11, 8, 8, 18, 15, 12, 10, 10, 6, 27, 26, 22, 19, 14, 10, 6, 6, 4, 4, 3, 2, 11, 10, 8, 6, 6, 3, 18, 18, 18, 18, 18, 18, 29, 23, 18, 15, 12, 7, 13, 13, 13, 12, 11, 11, 17, 16, 16, 16, 15, 15, 21, 19, 18, 16, 15, 14, 18, 15, 14, 14, 11, 10, 15, 14, 14, 13, 11, 10, 24, 23, 20, 15, 14, 10, 25, 25, 22, 20, 20, 18, 14, 14, 12, 11, 11, 10, 12, 12, 10, 9, 9, 8, 27, 24, 23, 21, 20, 19, 29, 24, 23, 21, 18, 17, 25, 22, 19, 13, 9, 6
 |28, 24, 21, 18, 15, 12, 14, 13, 13, 12, 12, 11, 27, 22, 20, 16, 10, 9, 19, 16, 16, 14, 11, 11, 14, 12, 10, 6, 4, 2, 23, 20, 20, 14, 13, 11, 22, 21, 18, 18, 16, 14, 13, 12, 11, 9, 8, 8, 16, 15, 14, 14, 14, 13, 15, 14, 14, 14, 13, 13, 25, 18, 17, 13, 9, 2, 22, 21, 18, 15, 14, 11, 24, 22, 14, 12, 10, 5, 18, 18, 17, 17, 17, 16, 22, 21, 17, 15, 10, 9, 20, 18, 18, 15, 13, 12, 17, 17, 17, 17, 17, 17, 19, 13, 12, 9, 4, 2, 23, 21, 17, 14, 12, 7, 18, 17, 16, 15, 13, 13, 20, 18, 16, 12, 8, 7, 27, 26, 24, 24, 23, 22, 14, 14, 13, 11, 10, 9, 23, 20, 17, 13, 11, 8, 21, 19, 15, 13, 9, 6, 18, 17, 12, 11, 6, 4, 24, 18, 16, 15, 11, 5, 27, 22, 17, 12, 11, 7, 20, 18, 14, 11, 5, 4, 28, 27, 27, 27, 27, 27, 23, 19, 17, 15, 9, 7, 24, 23, 22, 22, 21, 20, 11, 10, 10, 10, 10, 10, 13, 11, 10, 8, 6, 4, 30, 24, 24, 19, 18, 15, 17, 17, 17, 17, 17, 17, 9, 9, 9, 8, 8, 7, 25, 24, 22, 21, 20, 19, 22, 22, 18, 18, 15, 13, 30, 24, 19, 16, 11, 10, 28, 26, 23, 23, 20, 18, 13, 12, 12, 10, 8, 7, 18, 17, 13, 11, 11, 8, 20, 19, 19, 17, 16, 16, 2, 1, 1, 1, 1, 1, 9, 7, 5, 3, 3, 1, 22, 21, 21, 21, 19, 19, 30, 26, 22, 18, 16, 14, 13, 12, 8, 6, 4, 4, 16, 14, 11, 9, 6, 5
 |29, 26, 21, 20, 14, 14, 23, 22, 21, 19, 18, 18, 3, 3, 3, 2, 2, 2, 20, 19, 19, 19, 19, 19, 6, 6, 6, 5, 5, 4, 21, 19, 13, 9, 7, 5, 6, 6, 6, 6, 5, 5, 14, 12, 10, 9, 8, 6, 17, 17, 16, 14, 13, 13, 23, 20, 19, 12, 9, 6, 15, 12, 10, 7, 5, 5, 27, 24, 23, 20, 17, 17, 21, 18, 14, 11, 8, 5, 29, 25, 18, 14, 12, 5, 27, 21, 19, 11, 10, 5, 11, 8, 7, 5, 4, 3, 24, 18, 15, 11, 11, 6, 11, 11, 10, 10, 9, 9, 1, 1, 1, 1, 1, 1, 14, 14, 10, 9, 8, 6, 22, 22, 22, 21, 21, 21, 19, 15, 11, 9, 4, 4, 20, 18, 14, 14, 12, 10, 9, 8, 7, 7, 6, 5, 22, 21, 21, 21, 20, 19, 25, 24, 23, 21, 21, 20, 30, 27, 27, 24, 24, 22, 12, 9, 8, 7, 5, 3, 27, 24, 19, 11, 8, 3, 26, 22, 20, 20, 16, 15, 20, 18, 13, 10, 7, 6, 10, 9, 7, 6, 5, 3, 26, 21, 18, 16, 16, 12, 16, 16, 14, 10, 9, 8, 14, 10, 10, 7, 7, 4, 26, 19, 14, 11, 9, 6, 14, 14, 14, 14, 14, 14, 22, 19, 18, 15, 14, 13, 17, 17, 16, 13, 11, 11, 29, 27, 25, 21, 21, 18, 18, 17, 16, 16, 16, 15, 18, 15, 12, 10, 8, 5, 14, 13, 11, 7, 6, 3, 20, 19, 17, 16, 15, 14, 27, 24, 21, 20, 17, 15, 28, 26, 25, 23, 23, 21, 20, 18, 13, 9, 9, 6, 19, 14, 12, 8, 4, 2, 27, 26, 23, 22, 20, 19, 23, 19, 15, 13, 8, 8
 |24, 21, 19, 19, 17, 15, 19, 17, 15, 11, 7, 7, 27, 24, 21, 19, 14, 14, 28, 26, 25, 24, 24, 23, 24, 21, 21, 17, 17, 14, 10, 10, 10, 10, 10, 10, 29, 29, 29, 29, 29, 29, 11, 9, 8, 8, 6, 6, 20, 19, 14, 14, 9, 8, 21, 18, 15, 13, 10, 8, 24, 23, 21, 19, 18, 16, 13, 12, 10, 9, 5, 4, 15, 15, 15, 15, 15, 15, 20, 17, 16, 16, 15, 14, 27, 26, 25, 24, 23, 23, 24, 20, 16, 13, 10, 5, 28, 27, 24, 21, 16, 16, 17, 17, 16, 15, 14, 14, 20, 18, 18, 18, 17, 16, 23, 19, 18, 17, 12, 9, 29, 27, 27, 24, 22, 22, 21, 19, 19, 16, 15, 13, 18, 16, 14, 13, 12, 12, 10, 10, 8, 7, 6, 4, 27, 23, 21, 20, 18, 16, 23, 21, 13, 13, 5, 2, 13, 11, 7, 6, 3, 1, 23, 19, 17, 17, 15, 12, 25, 24, 22, 22, 20, 20, 11, 9, 7, 5, 4, 1, 16, 12, 12, 8, 7, 6, 25, 25, 25, 24, 24, 24, 28, 24, 23, 20, 18, 17, 22, 16, 13, 11, 8, 6, 27, 25, 23, 21, 20, 19, 16, 15, 14, 11, 9, 8, 24, 19, 16, 13, 12, 8, 9, 8, 8, 8, 7, 7, 29, 27, 27, 26, 25, 24, 27, 27, 26, 25, 23, 22, 24, 20, 17, 13, 5, 1, 16, 11, 11, 7, 6, 3, 22, 19, 18, 14, 13, 10, 9, 9, 9, 9, 9, 9, 17, 16, 16, 16, 15, 15, 23, 21, 16, 15, 11, 9, 23, 22, 16, 12, 10, 5, 26, 25, 23, 20, 20, 18, 28, 22, 20, 16, 9, 8, 25, 25, 24, 24, 23, 22
 |1, 1, 1, 1, 1, 1, 27, 25, 18, 13, 13, 7, 28, 27, 23, 21, 20, 19, 29, 28, 28, 27, 26, 26, 29, 22, 20, 12, 6, 6, 30, 26, 25, 23, 22, 21, 6, 5, 5, 4, 4, 4, 14, 12, 11, 11, 7, 7, 12, 12, 12, 12, 12, 12, 29, 25, 25, 22, 22, 19, 11, 10, 10, 10, 10, 10, 22, 21, 19, 18, 17, 17, 16, 16, 15, 13, 12, 11, 18, 18, 18, 17, 17, 17, 21, 19, 12, 9, 5, 4, 27, 26, 26, 25, 25, 25, 28, 24, 21, 15, 15, 9, 19, 18, 17, 15, 15, 13, 30, 29, 29, 29, 28, 28, 14, 13, 11, 11, 9, 7, 16, 12, 12, 9, 8, 4, 27, 27, 27, 27, 27, 27, 13, 13, 13, 13, 13, 13, 20, 20, 20, 20, 20, 20, 14, 13, 13, 12, 12, 12, 22, 22, 21, 21, 20, 20, 8, 8, 8, 7, 7, 7, 21, 21, 18, 14, 9, 7, 22, 19, 15, 14, 11, 7, 11, 10, 7, 5, 3, 3, 15, 13, 10, 8, 6, 3, 17, 12, 12, 10, 8, 6, 24, 22, 20, 20, 16, 16, 21, 20, 20, 20, 19, 19, 6, 5, 4, 3, 3, 2, 26, 26, 24, 22, 18, 16, 23, 19, 16, 11, 6, 3, 28, 27, 27, 27, 26, 26, 5, 5, 5, 5, 5, 5, 15, 14, 13, 13, 11, 11, 29, 23, 20, 14, 11, 8, 17, 17, 16, 16, 16, 15, 17, 16, 16, 16, 15, 15, 30, 30, 30, 30, 30, 30, 27, 27, 27, 26, 26, 26, 27, 26, 20, 16, 15, 13, 7, 7, 7, 7, 7, 7, 28, 25, 22, 19, 16, 12, 27, 22, 21, 17, 14, 9, 11, 11, 10, 9, 7, 6|];